
(set-option :produce-models true)
(set-option :inline-size-limit 10000)

(declare-const var0 String)

(push 1)
(assert (str.in.re var0 (re.* (re.range "\x01" "\xff"))))
(assert (str.in.re var0 (re.++ re.begin-anchor (re.++ (re.opt ((_ re.capture 1) (re.++ ((_ re.capture 2) (re.++ ((_ re.capture 3) (re.union (re.++ ((_ re.capture 4) (re.++ (re.opt ((_ re.capture 5) (str.to.re "+"))) (re.++ (re.opt ((_ re.capture 6) (re.union (str.to.re " ") (re.union (str.to.re "\u{0b}") (re.union (str.to.re "\u{0a}") (re.union (str.to.re "\u{0d}") (re.union (str.to.re "\u{09}") (str.to.re "\u{0c}")))))))) ((_ re.capture 7) ((_ re.loop 2 4) (re.range "0" "9")))))) (re.++ (re.opt ((_ re.capture 8) (re.union (str.to.re " ") (re.union (str.to.re "\u{0b}") (re.union (str.to.re "\u{0a}") (re.union (str.to.re "\u{0d}") (re.union (str.to.re "\u{09}") (str.to.re "\u{0c}")))))))) (re.++ ((_ re.capture 9) (re.opt ((_ re.capture 10) (re.++ (str.to.re "(") (re.++ (str.to.re "0") (str.to.re ")")))))) (re.opt ((_ re.capture 11) (re.union (str.to.re " ") (re.union (str.to.re "\u{0b}") (re.union (str.to.re "\u{0a}") (re.union (str.to.re "\u{0d}") (re.union (str.to.re "\u{09}") (str.to.re "\u{0c}"))))))))))) (str.to.re "0"))) (re.opt ((_ re.capture 12) (re.union (re.union (str.to.re " ") (re.union (str.to.re "\u{0b}") (re.union (str.to.re "\u{0a}") (re.union (str.to.re "\u{0d}") (re.union (str.to.re "\u{09}") (str.to.re "\u{0c}")))))) (str.to.re "-")))))) (re.++ ((_ re.capture 13) (re.union (re.union (str.to.re " ") (re.union (str.to.re "\u{0b}") (re.union (str.to.re "\u{0a}") (re.union (str.to.re "\u{0d}") (re.union (str.to.re "\u{09}") (str.to.re "\u{0c}")))))) ((_ re.loop 0 2) (re.range "0" "9")))) (re.opt ((_ re.capture 14) (re.union (re.union (str.to.re " ") (re.union (str.to.re "\u{0b}") (re.union (str.to.re "\u{0a}") (re.union (str.to.re "\u{0d}") (re.union (str.to.re "\u{09}") (str.to.re "\u{0c}")))))) (str.to.re "-")))))))) (re.++ ((_ re.capture 15) ((_ re.loop 0 3) (re.range "0" "9"))) (re.++ (re.opt ((_ re.capture 16) (re.union (re.union (str.to.re " ") (re.union (str.to.re "\u{0b}") (re.union (str.to.re "\u{0a}") (re.union (str.to.re "\u{0d}") (re.union (str.to.re "\u{09}") (str.to.re "\u{0c}")))))) (str.to.re "-")))) (re.++ ((_ re.capture 17) ((_ re.loop 0 2) (re.range "0" "9"))) (re.++ (re.opt ((_ re.capture 18) (re.union (re.union (str.to.re " ") (re.union (str.to.re "\u{0b}") (re.union (str.to.re "\u{0a}") (re.union (str.to.re "\u{0d}") (re.union (str.to.re "\u{09}") (str.to.re "\u{0c}")))))) (str.to.re "-")))) (re.++ ((_ re.capture 19) ((_ re.loop 0 2) (re.range "0" "9"))) re.all)))))))))	; match!==null
(assert (not (str.in.re ((_ str.extract 1) var0 (re.++ re.begin-anchor (re.++ (re.opt ((_ re.capture 1) (re.++ ((_ re.capture 2) (re.++ ((_ re.capture 3) (re.union (re.++ ((_ re.capture 4) (re.++ (re.opt ((_ re.capture 5) (str.to.re "+"))) (re.++ (re.opt ((_ re.capture 6) (re.union (str.to.re " ") (re.union (str.to.re "\u{0b}") (re.union (str.to.re "\u{0a}") (re.union (str.to.re "\u{0d}") (re.union (str.to.re "\u{09}") (str.to.re "\u{0c}")))))))) ((_ re.capture 7) ((_ re.loop 2 4) (re.range "0" "9")))))) (re.++ (re.opt ((_ re.capture 8) (re.union (str.to.re " ") (re.union (str.to.re "\u{0b}") (re.union (str.to.re "\u{0a}") (re.union (str.to.re "\u{0d}") (re.union (str.to.re "\u{09}") (str.to.re "\u{0c}")))))))) (re.++ ((_ re.capture 9) (re.opt ((_ re.capture 10) (re.++ (str.to.re "(") (re.++ (str.to.re "0") (str.to.re ")")))))) (re.opt ((_ re.capture 11) (re.union (str.to.re " ") (re.union (str.to.re "\u{0b}") (re.union (str.to.re "\u{0a}") (re.union (str.to.re "\u{0d}") (re.union (str.to.re "\u{09}") (str.to.re "\u{0c}"))))))))))) (str.to.re "0"))) (re.opt ((_ re.capture 12) (re.union (re.union (str.to.re " ") (re.union (str.to.re "\u{0b}") (re.union (str.to.re "\u{0a}") (re.union (str.to.re "\u{0d}") (re.union (str.to.re "\u{09}") (str.to.re "\u{0c}")))))) (str.to.re "-")))))) (re.++ ((_ re.capture 13) (re.union (re.union (str.to.re " ") (re.union (str.to.re "\u{0b}") (re.union (str.to.re "\u{0a}") (re.union (str.to.re "\u{0d}") (re.union (str.to.re "\u{09}") (str.to.re "\u{0c}")))))) ((_ re.loop 0 2) (re.range "0" "9")))) (re.opt ((_ re.capture 14) (re.union (re.union (str.to.re " ") (re.union (str.to.re "\u{0b}") (re.union (str.to.re "\u{0a}") (re.union (str.to.re "\u{0d}") (re.union (str.to.re "\u{09}") (str.to.re "\u{0c}")))))) (str.to.re "-")))))))) (re.++ ((_ re.capture 15) ((_ re.loop 0 3) (re.range "0" "9"))) (re.++ (re.opt ((_ re.capture 16) (re.union (re.union (str.to.re " ") (re.union (str.to.re "\u{0b}") (re.union (str.to.re "\u{0a}") (re.union (str.to.re "\u{0d}") (re.union (str.to.re "\u{09}") (str.to.re "\u{0c}")))))) (str.to.re "-")))) (re.++ ((_ re.capture 17) ((_ re.loop 0 2) (re.range "0" "9"))) (re.++ (re.opt ((_ re.capture 18) (re.union (re.union (str.to.re " ") (re.union (str.to.re "\u{0b}") (re.union (str.to.re "\u{0a}") (re.union (str.to.re "\u{0d}") (re.union (str.to.re "\u{09}") (str.to.re "\u{0c}")))))) (str.to.re "-")))) (re.++ ((_ re.capture 19) ((_ re.loop 0 2) (re.range "0" "9"))) re.all)))))))) (str.to.re "\x00"))))
;match[1]!==null
(assert (str.in.re ((_ str.extract 1) var0 (re.++ re.begin-anchor (re.++ (re.opt ((_ re.capture 1) (re.++ ((_ re.capture 2) (re.++ ((_ re.capture 3) (re.union (re.++ ((_ re.capture 4) (re.++ (re.opt ((_ re.capture 5) (str.to.re "+"))) (re.++ (re.opt ((_ re.capture 6) (re.union (str.to.re " ") (re.union (str.to.re "\u{0b}") (re.union (str.to.re "\u{0a}") (re.union (str.to.re "\u{0d}") (re.union (str.to.re "\u{09}") (str.to.re "\u{0c}")))))))) ((_ re.capture 7) ((_ re.loop 2 4) (re.range "0" "9")))))) (re.++ (re.opt ((_ re.capture 8) (re.union (str.to.re " ") (re.union (str.to.re "\u{0b}") (re.union (str.to.re "\u{0a}") (re.union (str.to.re "\u{0d}") (re.union (str.to.re "\u{09}") (str.to.re "\u{0c}")))))))) (re.++ ((_ re.capture 9) (re.opt ((_ re.capture 10) (re.++ (str.to.re "(") (re.++ (str.to.re "0") (str.to.re ")")))))) (re.opt ((_ re.capture 11) (re.union (str.to.re " ") (re.union (str.to.re "\u{0b}") (re.union (str.to.re "\u{0a}") (re.union (str.to.re "\u{0d}") (re.union (str.to.re "\u{09}") (str.to.re "\u{0c}"))))))))))) (str.to.re "0"))) (re.opt ((_ re.capture 12) (re.union (re.union (str.to.re " ") (re.union (str.to.re "\u{0b}") (re.union (str.to.re "\u{0a}") (re.union (str.to.re "\u{0d}") (re.union (str.to.re "\u{09}") (str.to.re "\u{0c}")))))) (str.to.re "-")))))) (re.++ ((_ re.capture 13) (re.union (re.union (str.to.re " ") (re.union (str.to.re "\u{0b}") (re.union (str.to.re "\u{0a}") (re.union (str.to.re "\u{0d}") (re.union (str.to.re "\u{09}") (str.to.re "\u{0c}")))))) ((_ re.loop 0 2) (re.range "0" "9")))) (re.opt ((_ re.capture 14) (re.union (re.union (str.to.re " ") (re.union (str.to.re "\u{0b}") (re.union (str.to.re "\u{0a}") (re.union (str.to.re "\u{0d}") (re.union (str.to.re "\u{09}") (str.to.re "\u{0c}")))))) (str.to.re "-")))))))) (re.++ ((_ re.capture 15) ((_ re.loop 0 3) (re.range "0" "9"))) (re.++ (re.opt ((_ re.capture 16) (re.union (re.union (str.to.re " ") (re.union (str.to.re "\u{0b}") (re.union (str.to.re "\u{0a}") (re.union (str.to.re "\u{0d}") (re.union (str.to.re "\u{09}") (str.to.re "\u{0c}")))))) (str.to.re "-")))) (re.++ ((_ re.capture 17) ((_ re.loop 0 2) (re.range "0" "9"))) (re.++ (re.opt ((_ re.capture 18) (re.union (re.union (str.to.re " ") (re.union (str.to.re "\u{0b}") (re.union (str.to.re "\u{0a}") (re.union (str.to.re "\u{0d}") (re.union (str.to.re "\u{09}") (str.to.re "\u{0c}")))))) (str.to.re "-")))) (re.++ ((_ re.capture 19) ((_ re.loop 0 2) (re.range "0" "9"))) re.all)))))))) (re.++ re.all(re.+ (re.range "a" "z")) re.all) ))
;/[a-z]+/.test(match[1]) == true
(check-sat)
(get-model)
(pop 1)
(push 1)
(assert (str.in.re var0 (re.* (re.range "\x01" "\xff"))))
(assert (str.in.re var0 (re.++ re.begin-anchor (re.++ (re.opt ((_ re.capture 1) (re.++ ((_ re.capture 2) (re.++ ((_ re.capture 3) (re.union (re.++ ((_ re.capture 4) (re.++ (re.opt ((_ re.capture 5) (str.to.re "+"))) (re.++ (re.opt ((_ re.capture 6) (re.union (str.to.re " ") (re.union (str.to.re "\u{0b}") (re.union (str.to.re "\u{0a}") (re.union (str.to.re "\u{0d}") (re.union (str.to.re "\u{09}") (str.to.re "\u{0c}")))))))) ((_ re.capture 7) ((_ re.loop 2 4) (re.range "0" "9")))))) (re.++ (re.opt ((_ re.capture 8) (re.union (str.to.re " ") (re.union (str.to.re "\u{0b}") (re.union (str.to.re "\u{0a}") (re.union (str.to.re "\u{0d}") (re.union (str.to.re "\u{09}") (str.to.re "\u{0c}")))))))) (re.++ ((_ re.capture 9) (re.opt ((_ re.capture 10) (re.++ (str.to.re "(") (re.++ (str.to.re "0") (str.to.re ")")))))) (re.opt ((_ re.capture 11) (re.union (str.to.re " ") (re.union (str.to.re "\u{0b}") (re.union (str.to.re "\u{0a}") (re.union (str.to.re "\u{0d}") (re.union (str.to.re "\u{09}") (str.to.re "\u{0c}"))))))))))) (str.to.re "0"))) (re.opt ((_ re.capture 12) (re.union (re.union (str.to.re " ") (re.union (str.to.re "\u{0b}") (re.union (str.to.re "\u{0a}") (re.union (str.to.re "\u{0d}") (re.union (str.to.re "\u{09}") (str.to.re "\u{0c}")))))) (str.to.re "-")))))) (re.++ ((_ re.capture 13) (re.union (re.union (str.to.re " ") (re.union (str.to.re "\u{0b}") (re.union (str.to.re "\u{0a}") (re.union (str.to.re "\u{0d}") (re.union (str.to.re "\u{09}") (str.to.re "\u{0c}")))))) ((_ re.loop 0 2) (re.range "0" "9")))) (re.opt ((_ re.capture 14) (re.union (re.union (str.to.re " ") (re.union (str.to.re "\u{0b}") (re.union (str.to.re "\u{0a}") (re.union (str.to.re "\u{0d}") (re.union (str.to.re "\u{09}") (str.to.re "\u{0c}")))))) (str.to.re "-")))))))) (re.++ ((_ re.capture 15) ((_ re.loop 0 3) (re.range "0" "9"))) (re.++ (re.opt ((_ re.capture 16) (re.union (re.union (str.to.re " ") (re.union (str.to.re "\u{0b}") (re.union (str.to.re "\u{0a}") (re.union (str.to.re "\u{0d}") (re.union (str.to.re "\u{09}") (str.to.re "\u{0c}")))))) (str.to.re "-")))) (re.++ ((_ re.capture 17) ((_ re.loop 0 2) (re.range "0" "9"))) (re.++ (re.opt ((_ re.capture 18) (re.union (re.union (str.to.re " ") (re.union (str.to.re "\u{0b}") (re.union (str.to.re "\u{0a}") (re.union (str.to.re "\u{0d}") (re.union (str.to.re "\u{09}") (str.to.re "\u{0c}")))))) (str.to.re "-")))) (re.++ ((_ re.capture 19) ((_ re.loop 0 2) (re.range "0" "9"))) re.all)))))))))	; match!==null
(assert (not (str.in.re ((_ str.extract 1) var0 (re.++ re.begin-anchor (re.++ (re.opt ((_ re.capture 1) (re.++ ((_ re.capture 2) (re.++ ((_ re.capture 3) (re.union (re.++ ((_ re.capture 4) (re.++ (re.opt ((_ re.capture 5) (str.to.re "+"))) (re.++ (re.opt ((_ re.capture 6) (re.union (str.to.re " ") (re.union (str.to.re "\u{0b}") (re.union (str.to.re "\u{0a}") (re.union (str.to.re "\u{0d}") (re.union (str.to.re "\u{09}") (str.to.re "\u{0c}")))))))) ((_ re.capture 7) ((_ re.loop 2 4) (re.range "0" "9")))))) (re.++ (re.opt ((_ re.capture 8) (re.union (str.to.re " ") (re.union (str.to.re "\u{0b}") (re.union (str.to.re "\u{0a}") (re.union (str.to.re "\u{0d}") (re.union (str.to.re "\u{09}") (str.to.re "\u{0c}")))))))) (re.++ ((_ re.capture 9) (re.opt ((_ re.capture 10) (re.++ (str.to.re "(") (re.++ (str.to.re "0") (str.to.re ")")))))) (re.opt ((_ re.capture 11) (re.union (str.to.re " ") (re.union (str.to.re "\u{0b}") (re.union (str.to.re "\u{0a}") (re.union (str.to.re "\u{0d}") (re.union (str.to.re "\u{09}") (str.to.re "\u{0c}"))))))))))) (str.to.re "0"))) (re.opt ((_ re.capture 12) (re.union (re.union (str.to.re " ") (re.union (str.to.re "\u{0b}") (re.union (str.to.re "\u{0a}") (re.union (str.to.re "\u{0d}") (re.union (str.to.re "\u{09}") (str.to.re "\u{0c}")))))) (str.to.re "-")))))) (re.++ ((_ re.capture 13) (re.union (re.union (str.to.re " ") (re.union (str.to.re "\u{0b}") (re.union (str.to.re "\u{0a}") (re.union (str.to.re "\u{0d}") (re.union (str.to.re "\u{09}") (str.to.re "\u{0c}")))))) ((_ re.loop 0 2) (re.range "0" "9")))) (re.opt ((_ re.capture 14) (re.union (re.union (str.to.re " ") (re.union (str.to.re "\u{0b}") (re.union (str.to.re "\u{0a}") (re.union (str.to.re "\u{0d}") (re.union (str.to.re "\u{09}") (str.to.re "\u{0c}")))))) (str.to.re "-")))))))) (re.++ ((_ re.capture 15) ((_ re.loop 0 3) (re.range "0" "9"))) (re.++ (re.opt ((_ re.capture 16) (re.union (re.union (str.to.re " ") (re.union (str.to.re "\u{0b}") (re.union (str.to.re "\u{0a}") (re.union (str.to.re "\u{0d}") (re.union (str.to.re "\u{09}") (str.to.re "\u{0c}")))))) (str.to.re "-")))) (re.++ ((_ re.capture 17) ((_ re.loop 0 2) (re.range "0" "9"))) (re.++ (re.opt ((_ re.capture 18) (re.union (re.union (str.to.re " ") (re.union (str.to.re "\u{0b}") (re.union (str.to.re "\u{0a}") (re.union (str.to.re "\u{0d}") (re.union (str.to.re "\u{09}") (str.to.re "\u{0c}")))))) (str.to.re "-")))) (re.++ ((_ re.capture 19) ((_ re.loop 0 2) (re.range "0" "9"))) re.all)))))))) (str.to.re "\x00"))))	
;match[1]!==null
(assert (not (str.in.re ((_ str.extract 1) var0 (re.++ re.begin-anchor (re.++ (re.opt ((_ re.capture 1) (re.++ ((_ re.capture 2) (re.++ ((_ re.capture 3) (re.union (re.++ ((_ re.capture 4) (re.++ (re.opt ((_ re.capture 5) (str.to.re "+"))) (re.++ (re.opt ((_ re.capture 6) (re.union (str.to.re " ") (re.union (str.to.re "\u{0b}") (re.union (str.to.re "\u{0a}") (re.union (str.to.re "\u{0d}") (re.union (str.to.re "\u{09}") (str.to.re "\u{0c}")))))))) ((_ re.capture 7) ((_ re.loop 2 4) (re.range "0" "9")))))) (re.++ (re.opt ((_ re.capture 8) (re.union (str.to.re " ") (re.union (str.to.re "\u{0b}") (re.union (str.to.re "\u{0a}") (re.union (str.to.re "\u{0d}") (re.union (str.to.re "\u{09}") (str.to.re "\u{0c}")))))))) (re.++ ((_ re.capture 9) (re.opt ((_ re.capture 10) (re.++ (str.to.re "(") (re.++ (str.to.re "0") (str.to.re ")")))))) (re.opt ((_ re.capture 11) (re.union (str.to.re " ") (re.union (str.to.re "\u{0b}") (re.union (str.to.re "\u{0a}") (re.union (str.to.re "\u{0d}") (re.union (str.to.re "\u{09}") (str.to.re "\u{0c}"))))))))))) (str.to.re "0"))) (re.opt ((_ re.capture 12) (re.union (re.union (str.to.re " ") (re.union (str.to.re "\u{0b}") (re.union (str.to.re "\u{0a}") (re.union (str.to.re "\u{0d}") (re.union (str.to.re "\u{09}") (str.to.re "\u{0c}")))))) (str.to.re "-")))))) (re.++ ((_ re.capture 13) (re.union (re.union (str.to.re " ") (re.union (str.to.re "\u{0b}") (re.union (str.to.re "\u{0a}") (re.union (str.to.re "\u{0d}") (re.union (str.to.re "\u{09}") (str.to.re "\u{0c}")))))) ((_ re.loop 0 2) (re.range "0" "9")))) (re.opt ((_ re.capture 14) (re.union (re.union (str.to.re " ") (re.union (str.to.re "\u{0b}") (re.union (str.to.re "\u{0a}") (re.union (str.to.re "\u{0d}") (re.union (str.to.re "\u{09}") (str.to.re "\u{0c}")))))) (str.to.re "-")))))))) (re.++ ((_ re.capture 15) ((_ re.loop 0 3) (re.range "0" "9"))) (re.++ (re.opt ((_ re.capture 16) (re.union (re.union (str.to.re " ") (re.union (str.to.re "\u{0b}") (re.union (str.to.re "\u{0a}") (re.union (str.to.re "\u{0d}") (re.union (str.to.re "\u{09}") (str.to.re "\u{0c}")))))) (str.to.re "-")))) (re.++ ((_ re.capture 17) ((_ re.loop 0 2) (re.range "0" "9"))) (re.++ (re.opt ((_ re.capture 18) (re.union (re.union (str.to.re " ") (re.union (str.to.re "\u{0b}") (re.union (str.to.re "\u{0a}") (re.union (str.to.re "\u{0d}") (re.union (str.to.re "\u{09}") (str.to.re "\u{0c}")))))) (str.to.re "-")))) (re.++ ((_ re.capture 19) ((_ re.loop 0 2) (re.range "0" "9"))) re.all)))))))) (re.++ re.all(re.+ (re.range "a" "z")) re.all) )))
;/[a-z]+/.test(match[1]) == false	
(check-sat)
(get-model)
(pop 1)
(push 1)
(assert (str.in.re var0 (re.* (re.range "\x01" "\xff"))))
(assert (str.in.re var0 (re.++ re.begin-anchor (re.++ (re.opt ((_ re.capture 1) (re.++ ((_ re.capture 2) (re.++ ((_ re.capture 3) (re.union (re.++ ((_ re.capture 4) (re.++ (re.opt ((_ re.capture 5) (str.to.re "+"))) (re.++ (re.opt ((_ re.capture 6) (re.union (str.to.re " ") (re.union (str.to.re "\u{0b}") (re.union (str.to.re "\u{0a}") (re.union (str.to.re "\u{0d}") (re.union (str.to.re "\u{09}") (str.to.re "\u{0c}")))))))) ((_ re.capture 7) ((_ re.loop 2 4) (re.range "0" "9")))))) (re.++ (re.opt ((_ re.capture 8) (re.union (str.to.re " ") (re.union (str.to.re "\u{0b}") (re.union (str.to.re "\u{0a}") (re.union (str.to.re "\u{0d}") (re.union (str.to.re "\u{09}") (str.to.re "\u{0c}")))))))) (re.++ ((_ re.capture 9) (re.opt ((_ re.capture 10) (re.++ (str.to.re "(") (re.++ (str.to.re "0") (str.to.re ")")))))) (re.opt ((_ re.capture 11) (re.union (str.to.re " ") (re.union (str.to.re "\u{0b}") (re.union (str.to.re "\u{0a}") (re.union (str.to.re "\u{0d}") (re.union (str.to.re "\u{09}") (str.to.re "\u{0c}"))))))))))) (str.to.re "0"))) (re.opt ((_ re.capture 12) (re.union (re.union (str.to.re " ") (re.union (str.to.re "\u{0b}") (re.union (str.to.re "\u{0a}") (re.union (str.to.re "\u{0d}") (re.union (str.to.re "\u{09}") (str.to.re "\u{0c}")))))) (str.to.re "-")))))) (re.++ ((_ re.capture 13) (re.union (re.union (str.to.re " ") (re.union (str.to.re "\u{0b}") (re.union (str.to.re "\u{0a}") (re.union (str.to.re "\u{0d}") (re.union (str.to.re "\u{09}") (str.to.re "\u{0c}")))))) ((_ re.loop 0 2) (re.range "0" "9")))) (re.opt ((_ re.capture 14) (re.union (re.union (str.to.re " ") (re.union (str.to.re "\u{0b}") (re.union (str.to.re "\u{0a}") (re.union (str.to.re "\u{0d}") (re.union (str.to.re "\u{09}") (str.to.re "\u{0c}")))))) (str.to.re "-")))))))) (re.++ ((_ re.capture 15) ((_ re.loop 0 3) (re.range "0" "9"))) (re.++ (re.opt ((_ re.capture 16) (re.union (re.union (str.to.re " ") (re.union (str.to.re "\u{0b}") (re.union (str.to.re "\u{0a}") (re.union (str.to.re "\u{0d}") (re.union (str.to.re "\u{09}") (str.to.re "\u{0c}")))))) (str.to.re "-")))) (re.++ ((_ re.capture 17) ((_ re.loop 0 2) (re.range "0" "9"))) (re.++ (re.opt ((_ re.capture 18) (re.union (re.union (str.to.re " ") (re.union (str.to.re "\u{0b}") (re.union (str.to.re "\u{0a}") (re.union (str.to.re "\u{0d}") (re.union (str.to.re "\u{09}") (str.to.re "\u{0c}")))))) (str.to.re "-")))) (re.++ ((_ re.capture 19) ((_ re.loop 0 2) (re.range "0" "9"))) re.all)))))))))	; match!==null
(assert (str.in.re ((_ str.extract 1) var0 (re.++ re.begin-anchor (re.++ (re.opt ((_ re.capture 1) (re.++ ((_ re.capture 2) (re.++ ((_ re.capture 3) (re.union (re.++ ((_ re.capture 4) (re.++ (re.opt ((_ re.capture 5) (str.to.re "+"))) (re.++ (re.opt ((_ re.capture 6) (re.union (str.to.re " ") (re.union (str.to.re "\u{0b}") (re.union (str.to.re "\u{0a}") (re.union (str.to.re "\u{0d}") (re.union (str.to.re "\u{09}") (str.to.re "\u{0c}")))))))) ((_ re.capture 7) ((_ re.loop 2 4) (re.range "0" "9")))))) (re.++ (re.opt ((_ re.capture 8) (re.union (str.to.re " ") (re.union (str.to.re "\u{0b}") (re.union (str.to.re "\u{0a}") (re.union (str.to.re "\u{0d}") (re.union (str.to.re "\u{09}") (str.to.re "\u{0c}")))))))) (re.++ ((_ re.capture 9) (re.opt ((_ re.capture 10) (re.++ (str.to.re "(") (re.++ (str.to.re "0") (str.to.re ")")))))) (re.opt ((_ re.capture 11) (re.union (str.to.re " ") (re.union (str.to.re "\u{0b}") (re.union (str.to.re "\u{0a}") (re.union (str.to.re "\u{0d}") (re.union (str.to.re "\u{09}") (str.to.re "\u{0c}"))))))))))) (str.to.re "0"))) (re.opt ((_ re.capture 12) (re.union (re.union (str.to.re " ") (re.union (str.to.re "\u{0b}") (re.union (str.to.re "\u{0a}") (re.union (str.to.re "\u{0d}") (re.union (str.to.re "\u{09}") (str.to.re "\u{0c}")))))) (str.to.re "-")))))) (re.++ ((_ re.capture 13) (re.union (re.union (str.to.re " ") (re.union (str.to.re "\u{0b}") (re.union (str.to.re "\u{0a}") (re.union (str.to.re "\u{0d}") (re.union (str.to.re "\u{09}") (str.to.re "\u{0c}")))))) ((_ re.loop 0 2) (re.range "0" "9")))) (re.opt ((_ re.capture 14) (re.union (re.union (str.to.re " ") (re.union (str.to.re "\u{0b}") (re.union (str.to.re "\u{0a}") (re.union (str.to.re "\u{0d}") (re.union (str.to.re "\u{09}") (str.to.re "\u{0c}")))))) (str.to.re "-")))))))) (re.++ ((_ re.capture 15) ((_ re.loop 0 3) (re.range "0" "9"))) (re.++ (re.opt ((_ re.capture 16) (re.union (re.union (str.to.re " ") (re.union (str.to.re "\u{0b}") (re.union (str.to.re "\u{0a}") (re.union (str.to.re "\u{0d}") (re.union (str.to.re "\u{09}") (str.to.re "\u{0c}")))))) (str.to.re "-")))) (re.++ ((_ re.capture 17) ((_ re.loop 0 2) (re.range "0" "9"))) (re.++ (re.opt ((_ re.capture 18) (re.union (re.union (str.to.re " ") (re.union (str.to.re "\u{0b}") (re.union (str.to.re "\u{0a}") (re.union (str.to.re "\u{0d}") (re.union (str.to.re "\u{09}") (str.to.re "\u{0c}")))))) (str.to.re "-")))) (re.++ ((_ re.capture 19) ((_ re.loop 0 2) (re.range "0" "9"))) re.all)))))))) (str.to.re "\x00")))
;match[1]==null
(check-sat)
(get-model)
(pop 1)
(push 1)
(assert (str.in.re var0 (re.* (re.range "\x01" "\xff"))))
(assert (not (str.in.re var0 (re.++ re.begin-anchor (re.++ (re.opt ((_ re.capture 1) (re.++ ((_ re.capture 2) (re.++ ((_ re.capture 3) (re.union (re.++ ((_ re.capture 4) (re.++ (re.opt ((_ re.capture 5) (str.to.re "+"))) (re.++ (re.opt ((_ re.capture 6) (re.union (str.to.re " ") (re.union (str.to.re "\u{0b}") (re.union (str.to.re "\u{0a}") (re.union (str.to.re "\u{0d}") (re.union (str.to.re "\u{09}") (str.to.re "\u{0c}")))))))) ((_ re.capture 7) ((_ re.loop 2 4) (re.range "0" "9")))))) (re.++ (re.opt ((_ re.capture 8) (re.union (str.to.re " ") (re.union (str.to.re "\u{0b}") (re.union (str.to.re "\u{0a}") (re.union (str.to.re "\u{0d}") (re.union (str.to.re "\u{09}") (str.to.re "\u{0c}")))))))) (re.++ ((_ re.capture 9) (re.opt ((_ re.capture 10) (re.++ (str.to.re "(") (re.++ (str.to.re "0") (str.to.re ")")))))) (re.opt ((_ re.capture 11) (re.union (str.to.re " ") (re.union (str.to.re "\u{0b}") (re.union (str.to.re "\u{0a}") (re.union (str.to.re "\u{0d}") (re.union (str.to.re "\u{09}") (str.to.re "\u{0c}"))))))))))) (str.to.re "0"))) (re.opt ((_ re.capture 12) (re.union (re.union (str.to.re " ") (re.union (str.to.re "\u{0b}") (re.union (str.to.re "\u{0a}") (re.union (str.to.re "\u{0d}") (re.union (str.to.re "\u{09}") (str.to.re "\u{0c}")))))) (str.to.re "-")))))) (re.++ ((_ re.capture 13) (re.union (re.union (str.to.re " ") (re.union (str.to.re "\u{0b}") (re.union (str.to.re "\u{0a}") (re.union (str.to.re "\u{0d}") (re.union (str.to.re "\u{09}") (str.to.re "\u{0c}")))))) ((_ re.loop 0 2) (re.range "0" "9")))) (re.opt ((_ re.capture 14) (re.union (re.union (str.to.re " ") (re.union (str.to.re "\u{0b}") (re.union (str.to.re "\u{0a}") (re.union (str.to.re "\u{0d}") (re.union (str.to.re "\u{09}") (str.to.re "\u{0c}")))))) (str.to.re "-")))))))) (re.++ ((_ re.capture 15) ((_ re.loop 0 3) (re.range "0" "9"))) (re.++ (re.opt ((_ re.capture 16) (re.union (re.union (str.to.re " ") (re.union (str.to.re "\u{0b}") (re.union (str.to.re "\u{0a}") (re.union (str.to.re "\u{0d}") (re.union (str.to.re "\u{09}") (str.to.re "\u{0c}")))))) (str.to.re "-")))) (re.++ ((_ re.capture 17) ((_ re.loop 0 2) (re.range "0" "9"))) (re.++ (re.opt ((_ re.capture 18) (re.union (re.union (str.to.re " ") (re.union (str.to.re "\u{0b}") (re.union (str.to.re "\u{0a}") (re.union (str.to.re "\u{0d}") (re.union (str.to.re "\u{09}") (str.to.re "\u{0c}")))))) (str.to.re "-")))) (re.++ ((_ re.capture 19) ((_ re.loop 0 2) (re.range "0" "9"))) re.all))))))))))	; match == null
(check-sat)
(get-model)
(pop 1)
(exit)
